NAME : tsp45_9.190.tour
COMMENT : Length = 190
COMMENT : Found by LKH [Keld Helsgaun]
TYPE : TOUR
DIMENSION : 45
TOUR_SECTION
1
11
23
30
22
45
44
20
31
40
18
16
29
32
24
4
41
39
33
27
15
36
5
37
19
8
13
9
17
14
35
2
21
12
28
38
10
26
42
25
34
3
7
6
43
-1
EOF
